p tw 40 86
e 0 4
e 0 7
e 0 9
e 0 11
e 0 12
e 0 22
e 0 34
e 0 35
e 1 19
e 1 33
e 2 4
e 2 8
e 2 14
e 2 32
e 3 5
e 3 14
e 3 15
e 3 19
e 3 20
e 3 24
e 3 36
e 4 7
e 4 12
e 4 34
e 4 35
e 5 21
e 6 15
e 7 9
e 7 12
e 8 19
e 8 21
e 9 14
e 9 17
e 9 21
e 9 27
e 9 39
e 10 11
e 10 14
e 10 18
e 10 20
e 10 32
e 11 13
e 11 15
e 11 36
e 11 38
e 12 15
e 12 33
e 12 39
e 13 15
e 13 17
e 13 18
e 13 33
e 14 25
e 14 35
e 15 17
e 15 20
e 15 33
e 15 39
e 16 17
e 16 31
e 17 30
e 17 31
e 17 39
e 18 33
e 19 31
e 19 37
e 21 24
e 21 26
e 21 37
e 22 35
e 22 36
e 23 25
e 24 27
e 24 38
e 25 30
e 26 29
e 26 37
e 29 32
e 29 33
e 30 35
e 31 33
e 32 37
e 33 38
e 34 37
e 34 38
e 34 39
